\ This file has been generated by DOcplex
\ ENCODING=ISO-8859-1
\Problem name: random_problem.lp

Minimize
 obj: 9 x0 + 2 x1 + 9 x2 + 7 x3 + 10 x4 - x5 + 6 x6 + 4 x7 - x8 + 7 x9 - x10
      + 4 x11 + 5 x12 + 6 x13 - 4 x14 + 7 x15 + 8 x16 + 8 x17 + 8 x18 + 7 x19
      - 6 x20 - 6 x21 + 5 x22 + 3 x23 + 3 x24 + 8 x25 - 7 x26 - 9 x28 + 2 x29
      - 7 x30 - 2 x31 - 2 x32 - 7 x33 + 9 x34 + 8 x35 + 5 x36 - 6 x37 + x38
      - 9 x39 - 6 x40 + 6 x41 - 3 x42 - 6 x43 + 2 x44 + 7 x45 + x46 + x47
      - 9 x48 - 6 x49 + 10 x50 - 2 x51 - 5 x52 + 6 x53 + 5 x54 + 5 x55 - 8 x56
      + x57 + 8 x58 + x59 + 7 x60 + 10 x61 + 7 x62 - 2 x63 + 9 x64 + 3 x65 + x66
      + 5 x67 + 10 x68 + [ 4 x0*x10 + 8 x0*x13 + 2 x0*x19 - 6 x0*x20 + 20 x0*x25
      + 12 x0*x32 + 2 x0*x41 - 10 x0*x50 - 10 x0*x56 + 14 x0*x68 + 2 x1*x9
      - 6 x1*x19 - 12 x1*x29 - 2 x1*x33 - 8 x1*x41 - 14 x1*x42 - 2 x1*x46
      + 2 x1*x54 - 4 x1*x67 + 10 x1*x68 + 10 x2*x6 + 16 x2*x8 - 20 x2*x10
      + 6 x2*x17 + 6 x2*x34 - 6 x2*x36 - 8 x2*x53 + 16 x2*x59 - 18 x2*x60
      + 10 x2*x62 + 14 x3*x8 + 8 x3*x9 - 12 x3*x14 + 4 x3*x17 - 12 x3*x18
      - 12 x3*x36 + 12 x3*x37 - 18 x3*x47 + 10 x3*x49 - 16 x3*x62 + 20 x4*x14
      + 14 x4*x15 + 6 x4*x24 + 8 x4*x27 + 8 x4*x32 + 20 x4*x41 - 14 x4*x47
      + 16 x4*x50 - 18 x4*x66 + 2 x4*x69 + 10 x5*x14 - 8 x5*x24 + 16 x5*x34
      + 10 x5*x38 - 16 x5*x50 + 20 x5*x52 + 18 x5*x58 + 2 x5*x60 + 8 x5*x64
      - 10 x5*x66 - 10 x6*x7 + 20 x6*x11 - 20 x6*x34 + 4 x6*x41 - 10 x6*x42
      + 10 x6*x43 + 10 x6*x49 - 4 x6*x51 - 10 x6*x60 + 8 x7*x12 + 16 x7*x19
      - 20 x7*x29 + 10 x7*x39 - 2 x7*x46 + 6 x7*x59 + 4 x7*x61 + 14 x7*x64
      - 12 x7*x67 + 12 x8*x26 - 4 x8*x37 + 8 x8*x39 + 14 x8*x46 + 12 x8*x52
      + 12 x8*x59 + 12 x8*x63 - 2 x8*x64 - 20 x9*x26 - 20 x9*x28 + 8 x9*x31
      + 18 x9*x33 + 16 x9*x35 - 18 x9*x38 + 4 x9*x43 - 12 x9*x48 - 2 x10*x13
      - 10 x10*x21 - 16 x10*x36 + 10 x10*x43 - 6 x10*x49 - 6 x10*x50
      + 12 x10*x51 - 8 x10*x52 - 16 x11*x18 - 6 x11*x29 + 4 x11*x38 + 8 x11*x40
      + 8 x11*x45 - 12 x11*x50 + 6 x11*x57 - 14 x11*x58 - 12 x11*x63 - 4 x12*x21
      + 12 x12*x22 + 10 x12*x33 + 14 x12*x36 - 12 x12*x42 - 12 x12*x45
      - 18 x12*x53 + 18 x12*x59 + 4 x12*x65 + 18 x13*x15 - 16 x13*x17
      + 16 x13*x25 - 2 x13*x34 - 20 x13*x36 - 20 x13*x54 - 12 x13*x60
      + 2 x13*x63 - 20 x14*x19 + 2 x14*x24 - 6 x14*x35 + 8 x14*x42 - 6 x14*x45
      + 12 x14*x60 + 20 x14*x68 + 20 x15*x16 + 20 x15*x18 - 16 x15*x20
      - 6 x15*x21 - 14 x15*x37 + 16 x15*x45 - 6 x15*x58 - 14 x15*x63
      - 16 x16*x24 - 8 x16*x25 - 6 x16*x27 - 18 x16*x28 + 20 x16*x30 + 6 x16*x36
      - 2 x16*x39 - 6 x16*x47 - 4 x16*x63 + 12 x17*x29 - 8 x17*x31 + 10 x17*x37
      - 8 x17*x45 - 8 x17*x46 + 20 x17*x62 - 20 x17*x67 - 8 x18*x24 - 4 x18*x36
      - 14 x18*x44 + 16 x18*x46 + 4 x18*x51 + 20 x18*x58 + 10 x18*x62
      + 10 x19*x20 + 18 x19*x22 + 10 x19*x26 - 12 x19*x47 + 2 x19*x48
      - 4 x19*x61 + 14 x20*x22 - 18 x20*x27 + 14 x20*x33 + 10 x20*x37
      - 16 x20*x53 + 2 x20*x56 + 14 x20*x59 + 4 x21*x25 + 14 x21*x38 - 4 x21*x41
      - 12 x21*x45 + 10 x21*x48 + 6 x21*x56 - 8 x21*x57 - 10 x22*x26
      - 12 x22*x27 - 2 x22*x28 - 14 x22*x39 - 2 x22*x42 + 8 x22*x56 - 2 x22*x62
      + 16 x23*x25 + 2 x23*x28 - 12 x23*x31 - 20 x23*x32 + 4 x23*x33 + 2 x23*x45
      + 4 x23*x49 - 18 x23*x50 - 10 x23*x52 - 14 x23*x68 + 20 x24*x29
      + 4 x24*x36 + 18 x24*x51 - 12 x24*x53 + 18 x24*x66 - 14 x25*x33
      - 6 x25*x39 + 12 x25*x43 + 20 x25*x52 - 10 x25*x54 + 14 x26*x28
      + 18 x26*x29 - 2 x26*x30 + 6 x26*x31 - 18 x26*x61 - 10 x26*x68
      - 12 x27*x34 + 14 x27*x47 - 14 x27*x56 - 20 x27*x57 - 16 x27*x61
      - 10 x27*x69 + 4 x28*x35 + 20 x28*x44 - 14 x28*x48 - 12 x28*x50
      - 4 x28*x55 + 6 x29*x30 + 12 x29*x53 - 10 x29*x59 + 18 x29*x69
      - 14 x30*x34 + 18 x30*x35 - 14 x30*x38 + 2 x30*x40 + 4 x30*x43
      + 20 x30*x58 - 14 x30*x65 + 14 x31*x34 - 14 x31*x43 + 20 x31*x52
      - 2 x31*x55 - 14 x31*x56 - 14 x31*x60 + 4 x32*x37 + 14 x32*x41
      - 16 x32*x43 + 16 x32*x44 - 18 x32*x47 - 6 x32*x54 - 4 x32*x67 - 2 x33*x35
      + 6 x33*x45 + 4 x33*x59 + 20 x33*x69 - 8 x34*x56 + 12 x34*x66 + 20 x34*x69
      + 8 x35*x46 - 6 x35*x51 - 2 x35*x52 - 2 x35*x60 + 20 x35*x61 + 8 x36*x48
      + 2 x36*x52 - 2 x37*x43 - 12 x37*x44 + 14 x37*x54 + 20 x37*x62
      - 12 x38*x56 - 14 x38*x61 + 18 x38*x64 - 8 x38*x65 + 2 x38*x68 + 2 x39*x51
      - 10 x39*x57 - 8 x39*x63 + 14 x39*x65 + 18 x39*x67 - 6 x40*x44
      - 12 x40*x47 + 6 x40*x48 + 10 x40*x49 + 12 x40*x57 + 16 x40*x64
      + 4 x40*x66 + 20 x40*x67 - 14 x41*x48 + 14 x41*x61 + 2 x41*x68 - 6 x41*x69
      + 12 x42*x45 - 10 x42*x49 - 4 x42*x57 - 2 x42*x60 - 10 x42*x61
      + 10 x43*x55 + 16 x43*x66 - 16 x44*x55 - 20 x44*x58 - 14 x44*x62
      + 2 x44*x64 + 4 x44*x65 - 4 x45*x69 - 6 x46*x55 + 6 x46*x62 - 8 x46*x64
      - 6 x46*x69 - 10 x47*x57 + 14 x47*x65 + 6 x47*x69 + 16 x48*x58
      + 20 x48*x64 + 6 x48*x69 - 20 x49*x50 - 16 x49*x51 + 8 x49*x64
      - 16 x49*x68 + 4 x50*x54 + 16 x50*x57 + 14 x51*x54 - 2 x51*x65 + 2 x51*x66
      - 6 x52*x53 - 16 x52*x61 + 4 x53*x55 + 4 x53*x62 + 14 x53*x63 - 8 x53*x67
      + 4 x54*x63 - 2 x54*x65 + 14 x54*x66 - 12 x55*x57 + 6 x55*x63 - 20 x55*x66
      - 8 x55*x68 - 18 x56*x58 + 2 x56*x59 + 6 x57*x64 + 2 x58*x60 + 6 x58*x66
      - 10 x59*x65 + 4 x59*x67 + 16 x60*x62 - 20 x61*x63 - 18 x65*x67
      + 18 x67*x68 ]/2
Subject To
 c0: x1 + x20 - x25 - x30 + x33 + 2 x38 - x39 - 2 x46 - 2 x47 + 2 x69 = 1
 c1: 2 x2 + 2 x3 + 2 x13 + x34 - 2 x35 + 2 x37 - x57 + 2 x61 + 2 x63 - 2 x66 = 
     -2
 c2: - x3 + x6 + 2 x9 + 2 x21 + 2 x25 - 2 x32 + 2 x38 + 2 x41 + x53 + x64 = 1
 c3: 2 x8 + x9 - 2 x10 + x19 + 2 x28 + x37 - x47 - x60 + 2 x62 - x69 = -1
 c4: 2 x1 - x5 - 2 x6 + x13 - 2 x18 + 2 x39 + 2 x42 - x48 - 2 x60 - 2 x64 = -1
 c5: - 2 x1 - 2 x4 - 2 x26 - x42 + 2 x50 + x55 + 2 x57 + x58 + 2 x64 + x67 = -1
 c6: - 2 x5 + x6 - 2 x11 + 2 x12 + x18 + 2 x24 + x48 + 2 x54 - 2 x59 - 2 x69 = 
     0
 c7: x5 + x14 + x19 - x26 - x31 + x42 + 2 x49 + 2 x50 - x51 - x55 = 1
 c8: 2 x9 + x14 + x16 + x20 - x26 - 2 x46 + 2 x49 - 2 x60 - x67 - x69 = -1
 c9: - 2 x3 - x10 + 2 x13 - 2 x21 - x28 - x38 + x54 - 2 x64 + 2 x67 + x68 = -1
 c10: x2 - 2 x4 + 2 x11 + x15 - x29 - x35 - 2 x51 - 2 x52 + 2 x54 + x66 = -2
 c11: x23 - x27 + x37 + x44 + 2 x47 + 2 x48 - x56 + 2 x61 + x64 - x67 = -1
 c12: - 2 x1 - 2 x2 - 2 x34 - 2 x40 + 2 x42 - x46 - 2 x47 - x51 + x61 - x67 = 0
 c13: 2 x3 - x6 - 2 x14 + 2 x18 + x26 - 2 x31 - x37 + x40 + 2 x43 - x51 = 0

Bounds
 0 <= x0 <= 1
 0 <= x1 <= 1
 0 <= x2 <= 1
 0 <= x3 <= 1
 0 <= x4 <= 1
 0 <= x5 <= 1
 0 <= x6 <= 1
 0 <= x7 <= 1
 0 <= x8 <= 1
 0 <= x9 <= 1
 0 <= x10 <= 1
 0 <= x11 <= 1
 0 <= x12 <= 1
 0 <= x13 <= 1
 0 <= x14 <= 1
 0 <= x15 <= 1
 0 <= x16 <= 1
 0 <= x17 <= 1
 0 <= x18 <= 1
 0 <= x19 <= 1
 0 <= x20 <= 1
 0 <= x21 <= 1
 0 <= x22 <= 1
 0 <= x23 <= 1
 0 <= x24 <= 1
 0 <= x25 <= 1
 0 <= x26 <= 1
 0 <= x27 <= 1
 0 <= x28 <= 1
 0 <= x29 <= 1
 0 <= x30 <= 1
 0 <= x31 <= 1
 0 <= x32 <= 1
 0 <= x33 <= 1
 0 <= x34 <= 1
 0 <= x35 <= 1
 0 <= x36 <= 1
 0 <= x37 <= 1
 0 <= x38 <= 1
 0 <= x39 <= 1
 0 <= x40 <= 1
 0 <= x41 <= 1
 0 <= x42 <= 1
 0 <= x43 <= 1
 0 <= x44 <= 1
 0 <= x45 <= 1
 0 <= x46 <= 1
 0 <= x47 <= 1
 0 <= x48 <= 1
 0 <= x49 <= 1
 0 <= x50 <= 1
 0 <= x51 <= 1
 0 <= x52 <= 1
 0 <= x53 <= 1
 0 <= x54 <= 1
 0 <= x55 <= 1
 0 <= x56 <= 1
 0 <= x57 <= 1
 0 <= x58 <= 1
 0 <= x59 <= 1
 0 <= x60 <= 1
 0 <= x61 <= 1
 0 <= x62 <= 1
 0 <= x63 <= 1
 0 <= x64 <= 1
 0 <= x65 <= 1
 0 <= x66 <= 1
 0 <= x67 <= 1
 0 <= x68 <= 1
 0 <= x69 <= 1

Binaries
 x0 x1 x2 x3 x4 x5 x6 x7 x8 x9 x10 x11 x12 x13 x14 x15 x16 x17 x18 x19 x20 x21
 x22 x23 x24 x25 x26 x27 x28 x29 x30 x31 x32 x33 x34 x35 x36 x37 x38 x39 x40 x41
 x42 x43 x44 x45 x46 x47 x48 x49 x50 x51 x52 x53 x54 x55 x56 x57 x58 x59 x60 x61
 x62 x63 x64 x65 x66 x67 x68 x69
End
